; benchmark generated from python API
(set-info :status unknown)
(declare-fun cell_1_7 () Int)
(declare-fun cell_1_8 () Int)
(declare-fun cell_2_2 () Int)
(declare-fun cell_2_3 () Int)
(declare-fun cell_3_5 () Int)
(declare-fun cell_3_6 () Int)
(declare-fun cell_4_1 () Int)
(declare-fun cell_4_2 () Int)
(declare-fun cell_5_7 () Int)
(declare-fun cell_5_9 () Int)
(declare-fun cell_6_4 () Int)
(declare-fun cell_6_6 () Int)
(declare-fun cell_7_1 () Int)
(declare-fun cell_8_4 () Int)
(declare-fun cell_9_9 () Int)
(declare-fun cell_1_1 () Int)
(declare-fun cell_2_1 () Int)
(declare-fun cell_3_1 () Int)
(declare-fun cell_5_1 () Int)
(declare-fun cell_6_1 () Int)
(declare-fun cell_8_1 () Int)
(declare-fun cell_9_1 () Int)
(declare-fun cell_1_2 () Int)
(declare-fun cell_3_2 () Int)
(declare-fun cell_5_2 () Int)
(declare-fun cell_6_2 () Int)
(declare-fun cell_7_2 () Int)
(declare-fun cell_8_2 () Int)
(declare-fun cell_9_2 () Int)
(declare-fun cell_1_3 () Int)
(declare-fun cell_3_3 () Int)
(declare-fun cell_4_3 () Int)
(declare-fun cell_5_3 () Int)
(declare-fun cell_6_3 () Int)
(declare-fun cell_7_3 () Int)
(declare-fun cell_8_3 () Int)
(declare-fun cell_9_3 () Int)
(declare-fun cell_1_4 () Int)
(declare-fun cell_2_4 () Int)
(declare-fun cell_3_4 () Int)
(declare-fun cell_4_4 () Int)
(declare-fun cell_5_4 () Int)
(declare-fun cell_7_4 () Int)
(declare-fun cell_9_4 () Int)
(declare-fun cell_1_5 () Int)
(declare-fun cell_2_5 () Int)
(declare-fun cell_4_5 () Int)
(declare-fun cell_5_5 () Int)
(declare-fun cell_6_5 () Int)
(declare-fun cell_7_5 () Int)
(declare-fun cell_8_5 () Int)
(declare-fun cell_9_5 () Int)
(declare-fun cell_1_6 () Int)
(declare-fun cell_2_6 () Int)
(declare-fun cell_4_6 () Int)
(declare-fun cell_5_6 () Int)
(declare-fun cell_7_6 () Int)
(declare-fun cell_8_6 () Int)
(declare-fun cell_9_6 () Int)
(declare-fun cell_2_7 () Int)
(declare-fun cell_3_7 () Int)
(declare-fun cell_4_7 () Int)
(declare-fun cell_6_7 () Int)
(declare-fun cell_7_7 () Int)
(declare-fun cell_8_7 () Int)
(declare-fun cell_9_7 () Int)
(declare-fun cell_2_8 () Int)
(declare-fun cell_3_8 () Int)
(declare-fun cell_4_8 () Int)
(declare-fun cell_5_8 () Int)
(declare-fun cell_6_8 () Int)
(declare-fun cell_7_8 () Int)
(declare-fun cell_8_8 () Int)
(declare-fun cell_9_8 () Int)
(declare-fun cell_1_9 () Int)
(declare-fun cell_2_9 () Int)
(declare-fun cell_3_9 () Int)
(declare-fun cell_4_9 () Int)
(declare-fun cell_6_9 () Int)
(declare-fun cell_7_9 () Int)
(declare-fun cell_8_9 () Int)
(assert
 (= cell_1_7 2))
(assert
 (= cell_1_8 1))
(assert
 (= cell_2_2 2))
(assert
 (= cell_2_3 1))
(assert
 (= cell_3_5 1))
(assert
 (= cell_3_6 2))
(assert
 (= cell_4_1 2))
(assert
 (= cell_4_2 1))
(assert
 (= cell_5_7 1))
(assert
 (= cell_5_9 2))
(assert
 (= cell_6_4 2))
(assert
 (= cell_6_6 1))
(assert
 (= cell_7_1 1))
(assert
 (= cell_8_4 1))
(assert
 (= cell_9_9 1))
(assert
 (let (($x2864 (= cell_1_1 9)))
 (let (($x1993 (= cell_1_1 8)))
 (let (($x151 (= cell_1_1 7)))
 (let (($x3930 (= cell_1_1 6)))
 (let (($x430 (= cell_1_1 5)))
 (let (($x3438 (= cell_1_1 4)))
 (let (($x2719 (= cell_1_1 3)))
 (let (($x2168 (= cell_1_1 2)))
 (let (($x2874 (= cell_1_1 1)))
 (or $x2874 $x2168 $x2719 $x3438 $x430 $x3930 $x151 $x1993 $x2864)))))))))))
(assert
 (let (($x245 (= cell_2_1 9)))
 (let (($x563 (= cell_2_1 8)))
 (let (($x2080 (= cell_2_1 7)))
 (let (($x2383 (= cell_2_1 6)))
 (let (($x1711 (= cell_2_1 5)))
 (let (($x1475 (= cell_2_1 4)))
 (let (($x6845 (= cell_2_1 3)))
 (let (($x355 (= cell_2_1 2)))
 (let (($x1568 (= cell_2_1 1)))
 (or $x1568 $x355 $x6845 $x1475 $x1711 $x2383 $x2080 $x563 $x245)))))))))))
(assert
 (let (($x935 (= cell_3_1 9)))
 (let (($x3372 (= cell_3_1 8)))
 (let (($x1216 (= cell_3_1 7)))
 (let (($x3854 (= cell_3_1 6)))
 (let (($x2603 (= cell_3_1 5)))
 (let (($x1173 (= cell_3_1 4)))
 (let (($x1458 (= cell_3_1 3)))
 (let (($x4151 (= cell_3_1 2)))
 (let (($x1555 (= cell_3_1 1)))
 (or $x1555 $x4151 $x1458 $x1173 $x2603 $x3854 $x1216 $x3372 $x935)))))))))))
(assert
 (let (($x1218 (= cell_4_1 2)))
 (or (= cell_4_1 1) $x1218 (= cell_4_1 3) (= cell_4_1 4) (= cell_4_1 5) (= cell_4_1 6) (= cell_4_1 7) (= cell_4_1 8) (= cell_4_1 9))))
(assert
 (let (($x3667 (= cell_5_1 9)))
 (let (($x2082 (= cell_5_1 8)))
 (let (($x4187 (= cell_5_1 7)))
 (let (($x8027 (= cell_5_1 6)))
 (let (($x2817 (= cell_5_1 5)))
 (let (($x2312 (= cell_5_1 4)))
 (let (($x1956 (= cell_5_1 3)))
 (let (($x2662 (= cell_5_1 2)))
 (let (($x2875 (= cell_5_1 1)))
 (or $x2875 $x2662 $x1956 $x2312 $x2817 $x8027 $x4187 $x2082 $x3667)))))))))))
(assert
 (let (($x3781 (= cell_6_1 9)))
 (let (($x340 (= cell_6_1 8)))
 (let (($x3974 (= cell_6_1 7)))
 (let (($x1528 (= cell_6_1 6)))
 (let (($x511 (= cell_6_1 5)))
 (let (($x7340 (= cell_6_1 4)))
 (let (($x3181 (= cell_6_1 3)))
 (let (($x1120 (= cell_6_1 2)))
 (let (($x2439 (= cell_6_1 1)))
 (or $x2439 $x1120 $x3181 $x7340 $x511 $x1528 $x3974 $x340 $x3781)))))))))))
(assert
 (let (($x2198 (= cell_7_1 1)))
 (or $x2198 (= cell_7_1 2) (= cell_7_1 3) (= cell_7_1 4) (= cell_7_1 5) (= cell_7_1 6) (= cell_7_1 7) (= cell_7_1 8) (= cell_7_1 9))))
(assert
 (let (($x3696 (= cell_8_1 9)))
 (let (($x1359 (= cell_8_1 8)))
 (let (($x2854 (= cell_8_1 7)))
 (let (($x145 (= cell_8_1 6)))
 (let (($x1456 (= cell_8_1 5)))
 (let (($x1351 (= cell_8_1 4)))
 (let (($x7292 (= cell_8_1 3)))
 (let (($x1716 (= cell_8_1 2)))
 (let (($x4086 (= cell_8_1 1)))
 (or $x4086 $x1716 $x7292 $x1351 $x1456 $x145 $x2854 $x1359 $x3696)))))))))))
(assert
 (let (($x4083 (= cell_9_1 9)))
 (let (($x2130 (= cell_9_1 8)))
 (let (($x3384 (= cell_9_1 7)))
 (let (($x697 (= cell_9_1 6)))
 (let (($x1553 (= cell_9_1 5)))
 (let (($x975 (= cell_9_1 4)))
 (let (($x3318 (= cell_9_1 3)))
 (let (($x1031 (= cell_9_1 2)))
 (let (($x3720 (= cell_9_1 1)))
 (or $x3720 $x1031 $x3318 $x975 $x1553 $x697 $x3384 $x2130 $x4083)))))))))))
(assert
 (let (($x1658 (= cell_1_2 9)))
 (let (($x1939 (= cell_1_2 8)))
 (let (($x1577 (= cell_1_2 7)))
 (let (($x2148 (= cell_1_2 6)))
 (let (($x2326 (= cell_1_2 5)))
 (let (($x446 (= cell_1_2 4)))
 (let (($x490 (= cell_1_2 3)))
 (let (($x8009 (= cell_1_2 2)))
 (let (($x1517 (= cell_1_2 1)))
 (or $x1517 $x8009 $x490 $x446 $x2326 $x2148 $x1577 $x1939 $x1658)))))))))))
(assert
 (let (($x3088 (= cell_2_2 2)))
 (or (= cell_2_2 1) $x3088 (= cell_2_2 3) (= cell_2_2 4) (= cell_2_2 5) (= cell_2_2 6) (= cell_2_2 7) (= cell_2_2 8) (= cell_2_2 9))))
(assert
 (let (($x4093 (= cell_3_2 9)))
 (let (($x3006 (= cell_3_2 8)))
 (let (($x3719 (= cell_3_2 7)))
 (let (($x2863 (= cell_3_2 6)))
 (let (($x7538 (= cell_3_2 5)))
 (let (($x3724 (= cell_3_2 4)))
 (let (($x168 (= cell_3_2 3)))
 (let (($x3059 (= cell_3_2 2)))
 (let (($x7803 (= cell_3_2 1)))
 (or $x7803 $x3059 $x168 $x3724 $x7538 $x2863 $x3719 $x3006 $x4093)))))))))))
(assert
 (let (($x1499 (= cell_4_2 1)))
 (or $x1499 (= cell_4_2 2) (= cell_4_2 3) (= cell_4_2 4) (= cell_4_2 5) (= cell_4_2 6) (= cell_4_2 7) (= cell_4_2 8) (= cell_4_2 9))))
(assert
 (let (($x3284 (= cell_5_2 9)))
 (let (($x1602 (= cell_5_2 8)))
 (let (($x7770 (= cell_5_2 7)))
 (let (($x1296 (= cell_5_2 6)))
 (let (($x6985 (= cell_5_2 5)))
 (let (($x1516 (= cell_5_2 4)))
 (let (($x142 (= cell_5_2 3)))
 (let (($x3504 (= cell_5_2 2)))
 (let (($x1915 (= cell_5_2 1)))
 (or $x1915 $x3504 $x142 $x1516 $x6985 $x1296 $x7770 $x1602 $x3284)))))))))))
(assert
 (let (($x565 (= cell_6_2 9)))
 (let (($x1527 (= cell_6_2 8)))
 (let (($x174 (= cell_6_2 7)))
 (let (($x634 (= cell_6_2 6)))
 (let (($x2452 (= cell_6_2 5)))
 (let (($x829 (= cell_6_2 4)))
 (let (($x3769 (= cell_6_2 3)))
 (let (($x941 (= cell_6_2 2)))
 (let (($x3783 (= cell_6_2 1)))
 (or $x3783 $x941 $x3769 $x829 $x2452 $x634 $x174 $x1527 $x565)))))))))))
(assert
 (let (($x1222 (= cell_7_2 2)))
 (let (($x724 (= cell_7_2 1)))
 (or $x724 $x1222 (= cell_7_2 3) (= cell_7_2 4) (= cell_7_2 5) (= cell_7_2 6) (= cell_7_2 7) (= cell_7_2 8) (= cell_7_2 9)))))
(assert
 (let (($x119 (= cell_8_2 9)))
 (let (($x645 (= cell_8_2 8)))
 (let (($x4025 (= cell_8_2 7)))
 (let (($x271 (= cell_8_2 6)))
 (let (($x2039 (= cell_8_2 5)))
 (let (($x2052 (= cell_8_2 4)))
 (let (($x7344 (= cell_8_2 3)))
 (let (($x2668 (= cell_8_2 2)))
 (let (($x7464 (= cell_8_2 1)))
 (or $x7464 $x2668 $x7344 $x2052 $x2039 $x271 $x4025 $x645 $x119)))))))))))
(assert
 (let (($x651 (= cell_9_2 9)))
 (let (($x3122 (= cell_9_2 8)))
 (let (($x2461 (= cell_9_2 7)))
 (let (($x2551 (= cell_9_2 6)))
 (let (($x748 (= cell_9_2 5)))
 (let (($x1947 (= cell_9_2 4)))
 (let (($x3500 (= cell_9_2 3)))
 (let (($x3518 (= cell_9_2 2)))
 (let (($x1469 (= cell_9_2 1)))
 (or $x1469 $x3518 $x3500 $x1947 $x748 $x2551 $x2461 $x3122 $x651)))))))))))
(assert
 (let (($x2563 (= cell_1_3 9)))
 (let (($x1976 (= cell_1_3 8)))
 (let (($x2524 (= cell_1_3 7)))
 (let (($x2738 (= cell_1_3 6)))
 (let (($x593 (= cell_1_3 5)))
 (let (($x1790 (= cell_1_3 4)))
 (let (($x3665 (= cell_1_3 3)))
 (let (($x3533 (= cell_1_3 2)))
 (let (($x2962 (= cell_1_3 1)))
 (or $x2962 $x3533 $x3665 $x1790 $x593 $x2738 $x2524 $x1976 $x2563)))))))))))
(assert
 (let (($x79 (= cell_2_3 1)))
 (or $x79 (= cell_2_3 2) (= cell_2_3 3) (= cell_2_3 4) (= cell_2_3 5) (= cell_2_3 6) (= cell_2_3 7) (= cell_2_3 8) (= cell_2_3 9))))
(assert
 (let (($x3142 (= cell_3_3 9)))
 (let (($x7483 (= cell_3_3 8)))
 (let (($x7761 (= cell_3_3 7)))
 (let (($x111 (= cell_3_3 6)))
 (let (($x3073 (= cell_3_3 5)))
 (let (($x499 (= cell_3_3 4)))
 (let (($x2881 (= cell_3_3 3)))
 (let (($x1932 (= cell_3_3 2)))
 (let (($x473 (= cell_3_3 1)))
 (or $x473 $x1932 $x2881 $x499 $x3073 $x111 $x7761 $x7483 $x3142)))))))))))
(assert
 (let (($x1327 (= cell_4_3 2)))
 (let (($x2574 (= cell_4_3 1)))
 (or $x2574 $x1327 (= cell_4_3 3) (= cell_4_3 4) (= cell_4_3 5) (= cell_4_3 6) (= cell_4_3 7) (= cell_4_3 8) (= cell_4_3 9)))))
(assert
 (let (($x1463 (= cell_5_3 9)))
 (let (($x6581 (= cell_5_3 8)))
 (let (($x7519 (= cell_5_3 7)))
 (let (($x1717 (= cell_5_3 6)))
 (let (($x434 (= cell_5_3 5)))
 (let (($x1616 (= cell_5_3 4)))
 (let (($x1594 (= cell_5_3 3)))
 (let (($x817 (= cell_5_3 2)))
 (let (($x656 (= cell_5_3 1)))
 (or $x656 $x817 $x1594 $x1616 $x434 $x1717 $x7519 $x6581 $x1463)))))))))))
(assert
 (let (($x10 (= cell_6_3 9)))
 (let (($x6714 (= cell_6_3 8)))
 (let (($x1009 (= cell_6_3 7)))
 (let (($x3642 (= cell_6_3 6)))
 (let (($x1997 (= cell_6_3 5)))
 (let (($x350 (= cell_6_3 4)))
 (let (($x1135 (= cell_6_3 3)))
 (let (($x3968 (= cell_6_3 2)))
 (let (($x2339 (= cell_6_3 1)))
 (or $x2339 $x3968 $x1135 $x350 $x1997 $x3642 $x1009 $x6714 $x10)))))))))))
(assert
 (let (($x2975 (= cell_7_3 9)))
 (let (($x73 (= cell_7_3 8)))
 (let (($x500 (= cell_7_3 7)))
 (let (($x2840 (= cell_7_3 6)))
 (let (($x1321 (= cell_7_3 5)))
 (let (($x4189 (= cell_7_3 4)))
 (let (($x3177 (= cell_7_3 3)))
 (let (($x1380 (= cell_7_3 2)))
 (let (($x3417 (= cell_7_3 1)))
 (or $x3417 $x1380 $x3177 $x4189 $x1321 $x2840 $x500 $x73 $x2975)))))))))))
(assert
 (let (($x2493 (= cell_8_3 9)))
 (let (($x1246 (= cell_8_3 8)))
 (let (($x2835 (= cell_8_3 7)))
 (let (($x947 (= cell_8_3 6)))
 (let (($x4238 (= cell_8_3 5)))
 (let (($x2425 (= cell_8_3 4)))
 (let (($x2070 (= cell_8_3 3)))
 (let (($x2609 (= cell_8_3 2)))
 (let (($x3399 (= cell_8_3 1)))
 (or $x3399 $x2609 $x2070 $x2425 $x4238 $x947 $x2835 $x1246 $x2493)))))))))))
(assert
 (let (($x2038 (= cell_9_3 9)))
 (let (($x2800 (= cell_9_3 8)))
 (let (($x1978 (= cell_9_3 7)))
 (let (($x3292 (= cell_9_3 6)))
 (let (($x1816 (= cell_9_3 5)))
 (let (($x254 (= cell_9_3 4)))
 (let (($x4112 (= cell_9_3 3)))
 (let (($x1311 (= cell_9_3 2)))
 (let (($x2606 (= cell_9_3 1)))
 (or $x2606 $x1311 $x4112 $x254 $x1816 $x3292 $x1978 $x2800 $x2038)))))))))))
(assert
 (let (($x2178 (= cell_1_4 9)))
 (let (($x2104 (= cell_1_4 8)))
 (let (($x901 (= cell_1_4 7)))
 (let (($x2402 (= cell_1_4 6)))
 (let (($x7502 (= cell_1_4 5)))
 (let (($x361 (= cell_1_4 4)))
 (let (($x335 (= cell_1_4 3)))
 (let (($x2281 (= cell_1_4 2)))
 (let (($x4155 (= cell_1_4 1)))
 (or $x4155 $x2281 $x335 $x361 $x7502 $x2402 $x901 $x2104 $x2178)))))))))))
(assert
 (let (($x1988 (= cell_2_4 9)))
 (let (($x931 (= cell_2_4 8)))
 (let (($x1608 (= cell_2_4 7)))
 (let (($x630 (= cell_2_4 6)))
 (let (($x2853 (= cell_2_4 5)))
 (let (($x3489 (= cell_2_4 4)))
 (let (($x2604 (= cell_2_4 3)))
 (let (($x3430 (= cell_2_4 2)))
 (let (($x358 (= cell_2_4 1)))
 (or $x358 $x3430 $x2604 $x3489 $x2853 $x630 $x1608 $x931 $x1988)))))))))))
(assert
 (let (($x3459 (= cell_3_4 9)))
 (let (($x2765 (= cell_3_4 8)))
 (let (($x91 (= cell_3_4 7)))
 (let (($x832 (= cell_3_4 6)))
 (let (($x1176 (= cell_3_4 5)))
 (let (($x968 (= cell_3_4 4)))
 (let (($x548 (= cell_3_4 3)))
 (let (($x2431 (= cell_3_4 2)))
 (let (($x1647 (= cell_3_4 1)))
 (or $x1647 $x2431 $x548 $x968 $x1176 $x832 $x91 $x2765 $x3459)))))))))))
(assert
 (let (($x2569 (= cell_4_4 9)))
 (let (($x607 (= cell_4_4 8)))
 (let (($x747 (= cell_4_4 7)))
 (let (($x2307 (= cell_4_4 6)))
 (let (($x417 (= cell_4_4 5)))
 (let (($x573 (= cell_4_4 4)))
 (let (($x932 (= cell_4_4 3)))
 (let (($x2288 (= cell_4_4 2)))
 (let (($x2429 (= cell_4_4 1)))
 (or $x2429 $x2288 $x932 $x573 $x417 $x2307 $x747 $x607 $x2569)))))))))))
(assert
 (let (($x380 (= cell_5_4 9)))
 (let (($x1549 (= cell_5_4 8)))
 (let (($x3839 (= cell_5_4 7)))
 (let (($x1518 (= cell_5_4 6)))
 (let (($x775 (= cell_5_4 5)))
 (let (($x133 (= cell_5_4 4)))
 (let (($x2833 (= cell_5_4 3)))
 (let (($x3627 (= cell_5_4 2)))
 (let (($x1969 (= cell_5_4 1)))
 (or $x1969 $x3627 $x2833 $x133 $x775 $x1518 $x3839 $x1549 $x380)))))))))))
(assert
 (let (($x2789 (= cell_6_4 2)))
 (or (= cell_6_4 1) $x2789 (= cell_6_4 3) (= cell_6_4 4) (= cell_6_4 5) (= cell_6_4 6) (= cell_6_4 7) (= cell_6_4 8) (= cell_6_4 9))))
(assert
 (let (($x875 (= cell_7_4 9)))
 (let (($x7375 (= cell_7_4 8)))
 (let (($x65 (= cell_7_4 7)))
 (let (($x3448 (= cell_7_4 6)))
 (let (($x359 (= cell_7_4 5)))
 (let (($x562 (= cell_7_4 4)))
 (let (($x3100 (= cell_7_4 3)))
 (let (($x2634 (= cell_7_4 2)))
 (let (($x2229 (= cell_7_4 1)))
 (or $x2229 $x2634 $x3100 $x562 $x359 $x3448 $x65 $x7375 $x875)))))))))))
(assert
 (let (($x1902 (= cell_8_4 1)))
 (or $x1902 (= cell_8_4 2) (= cell_8_4 3) (= cell_8_4 4) (= cell_8_4 5) (= cell_8_4 6) (= cell_8_4 7) (= cell_8_4 8) (= cell_8_4 9))))
(assert
 (let (($x2426 (= cell_9_4 9)))
 (let (($x2490 (= cell_9_4 8)))
 (let (($x2350 (= cell_9_4 7)))
 (let (($x2108 (= cell_9_4 6)))
 (let (($x2740 (= cell_9_4 5)))
 (let (($x1676 (= cell_9_4 4)))
 (let (($x1926 (= cell_9_4 3)))
 (let (($x709 (= cell_9_4 2)))
 (let (($x484 (= cell_9_4 1)))
 (or $x484 $x709 $x1926 $x1676 $x2740 $x2108 $x2350 $x2490 $x2426)))))))))))
(assert
 (let (($x3044 (= cell_1_5 9)))
 (let (($x587 (= cell_1_5 8)))
 (let (($x3261 (= cell_1_5 7)))
 (let (($x2503 (= cell_1_5 6)))
 (let (($x117 (= cell_1_5 5)))
 (let (($x3601 (= cell_1_5 4)))
 (let (($x2294 (= cell_1_5 3)))
 (let (($x16 (= cell_1_5 2)))
 (let (($x1186 (= cell_1_5 1)))
 (or $x1186 $x16 $x2294 $x3601 $x117 $x2503 $x3261 $x587 $x3044)))))))))))
(assert
 (let (($x7294 (= cell_2_5 9)))
 (let (($x7789 (= cell_2_5 8)))
 (let (($x1530 (= cell_2_5 7)))
 (let (($x6865 (= cell_2_5 6)))
 (let (($x778 (= cell_2_5 5)))
 (let (($x1340 (= cell_2_5 4)))
 (let (($x1879 (= cell_2_5 3)))
 (let (($x3730 (= cell_2_5 2)))
 (let (($x2361 (= cell_2_5 1)))
 (or $x2361 $x3730 $x1879 $x1340 $x778 $x6865 $x1530 $x7789 $x7294)))))))))))
(assert
 (let (($x169 (= cell_3_5 1)))
 (or $x169 (= cell_3_5 2) (= cell_3_5 3) (= cell_3_5 4) (= cell_3_5 5) (= cell_3_5 6) (= cell_3_5 7) (= cell_3_5 8) (= cell_3_5 9))))
(assert
 (let (($x315 (= cell_4_5 9)))
 (let (($x1086 (= cell_4_5 8)))
 (let (($x3534 (= cell_4_5 7)))
 (let (($x752 (= cell_4_5 6)))
 (let (($x3741 (= cell_4_5 5)))
 (let (($x3967 (= cell_4_5 4)))
 (let (($x3973 (= cell_4_5 3)))
 (let (($x1201 (= cell_4_5 2)))
 (let (($x300 (= cell_4_5 1)))
 (or $x300 $x1201 $x3973 $x3967 $x3741 $x752 $x3534 $x1086 $x315)))))))))))
(assert
 (let (($x375 (= cell_5_5 9)))
 (let (($x3750 (= cell_5_5 8)))
 (let (($x3941 (= cell_5_5 7)))
 (let (($x2128 (= cell_5_5 6)))
 (let (($x4111 (= cell_5_5 5)))
 (let (($x2512 (= cell_5_5 4)))
 (let (($x860 (= cell_5_5 3)))
 (let (($x6616 (= cell_5_5 2)))
 (let (($x2693 (= cell_5_5 1)))
 (or $x2693 $x6616 $x860 $x2512 $x4111 $x2128 $x3941 $x3750 $x375)))))))))))
(assert
 (let (($x2556 (= cell_6_5 9)))
 (let (($x2903 (= cell_6_5 8)))
 (let (($x1119 (= cell_6_5 7)))
 (let (($x1196 (= cell_6_5 6)))
 (let (($x1974 (= cell_6_5 5)))
 (let (($x3654 (= cell_6_5 4)))
 (let (($x1838 (= cell_6_5 3)))
 (let (($x3216 (= cell_6_5 2)))
 (let (($x1882 (= cell_6_5 1)))
 (or $x1882 $x3216 $x1838 $x3654 $x1974 $x1196 $x1119 $x2903 $x2556)))))))))))
(assert
 (let (($x2889 (= cell_7_5 9)))
 (let (($x660 (= cell_7_5 8)))
 (let (($x1244 (= cell_7_5 7)))
 (let (($x3886 (= cell_7_5 6)))
 (let (($x3002 (= cell_7_5 5)))
 (let (($x1354 (= cell_7_5 4)))
 (let (($x659 (= cell_7_5 3)))
 (let (($x3354 (= cell_7_5 2)))
 (let (($x1706 (= cell_7_5 1)))
 (or $x1706 $x3354 $x659 $x1354 $x3002 $x3886 $x1244 $x660 $x2889)))))))))))
(assert
 (let (($x2046 (= cell_8_5 1)))
 (or $x2046 (= cell_8_5 2) (= cell_8_5 3) (= cell_8_5 4) (= cell_8_5 5) (= cell_8_5 6) (= cell_8_5 7) (= cell_8_5 8) (= cell_8_5 9))))
(assert
 (let (($x2421 (= cell_9_5 9)))
 (let (($x1925 (= cell_9_5 8)))
 (let (($x1037 (= cell_9_5 7)))
 (let (($x7235 (= cell_9_5 6)))
 (let (($x3167 (= cell_9_5 5)))
 (let (($x4170 (= cell_9_5 4)))
 (let (($x7324 (= cell_9_5 3)))
 (let (($x7795 (= cell_9_5 2)))
 (let (($x2620 (= cell_9_5 1)))
 (or $x2620 $x7795 $x7324 $x4170 $x3167 $x7235 $x1037 $x1925 $x2421)))))))))))
(assert
 (let (($x1927 (= cell_1_6 9)))
 (let (($x2999 (= cell_1_6 8)))
 (let (($x2419 (= cell_1_6 7)))
 (let (($x2005 (= cell_1_6 6)))
 (let (($x1082 (= cell_1_6 5)))
 (let (($x1963 (= cell_1_6 4)))
 (let (($x7884 (= cell_1_6 3)))
 (let (($x1344 (= cell_1_6 2)))
 (let (($x317 (= cell_1_6 1)))
 (or $x317 $x1344 $x7884 $x1963 $x1082 $x2005 $x2419 $x2999 $x1927)))))))))))
(assert
 (let (($x2343 (= cell_2_6 9)))
 (let (($x644 (= cell_2_6 8)))
 (let (($x2681 (= cell_2_6 7)))
 (let (($x2674 (= cell_2_6 6)))
 (let (($x3264 (= cell_2_6 5)))
 (let (($x1096 (= cell_2_6 4)))
 (let (($x3833 (= cell_2_6 3)))
 (let (($x3827 (= cell_2_6 2)))
 (let (($x1191 (= cell_2_6 1)))
 (or $x1191 $x3827 $x3833 $x1096 $x3264 $x2674 $x2681 $x644 $x2343)))))))))))
(assert
 (let (($x2646 (= cell_3_6 2)))
 (or (= cell_3_6 1) $x2646 (= cell_3_6 3) (= cell_3_6 4) (= cell_3_6 5) (= cell_3_6 6) (= cell_3_6 7) (= cell_3_6 8) (= cell_3_6 9))))
(assert
 (let (($x3857 (= cell_4_6 9)))
 (let (($x1546 (= cell_4_6 8)))
 (let (($x1800 (= cell_4_6 7)))
 (let (($x2552 (= cell_4_6 6)))
 (let (($x8008 (= cell_4_6 5)))
 (let (($x1604 (= cell_4_6 4)))
 (let (($x741 (= cell_4_6 3)))
 (let (($x610 (= cell_4_6 2)))
 (let (($x1081 (= cell_4_6 1)))
 (or $x1081 $x610 $x741 $x1604 $x8008 $x2552 $x1800 $x1546 $x3857)))))))))))
(assert
 (let (($x2721 (= cell_5_6 9)))
 (let (($x1401 (= cell_5_6 8)))
 (let (($x1521 (= cell_5_6 7)))
 (let (($x516 (= cell_5_6 6)))
 (let (($x1994 (= cell_5_6 5)))
 (let (($x8017 (= cell_5_6 4)))
 (let (($x3429 (= cell_5_6 3)))
 (let (($x933 (= cell_5_6 2)))
 (let (($x3341 (= cell_5_6 1)))
 (or $x3341 $x933 $x3429 $x8017 $x1994 $x516 $x1521 $x1401 $x2721)))))))))))
(assert
 (let (($x1461 (= cell_6_6 1)))
 (or $x1461 (= cell_6_6 2) (= cell_6_6 3) (= cell_6_6 4) (= cell_6_6 5) (= cell_6_6 6) (= cell_6_6 7) (= cell_6_6 8) (= cell_6_6 9))))
(assert
 (let (($x2954 (= cell_7_6 9)))
 (let (($x1136 (= cell_7_6 8)))
 (let (($x1875 (= cell_7_6 7)))
 (let (($x2179 (= cell_7_6 6)))
 (let (($x3014 (= cell_7_6 5)))
 (let (($x3690 (= cell_7_6 4)))
 (let (($x3628 (= cell_7_6 3)))
 (let (($x2933 (= cell_7_6 2)))
 (let (($x552 (= cell_7_6 1)))
 (or $x552 $x2933 $x3628 $x3690 $x3014 $x2179 $x1875 $x1136 $x2954)))))))))))
(assert
 (let (($x1118 (= cell_8_6 2)))
 (let (($x3647 (= cell_8_6 1)))
 (or $x3647 $x1118 (= cell_8_6 3) (= cell_8_6 4) (= cell_8_6 5) (= cell_8_6 6) (= cell_8_6 7) (= cell_8_6 8) (= cell_8_6 9)))))
(assert
 (let (($x6776 (= cell_9_6 9)))
 (let (($x2208 (= cell_9_6 8)))
 (let (($x3588 (= cell_9_6 7)))
 (let (($x6936 (= cell_9_6 6)))
 (let (($x436 (= cell_9_6 5)))
 (let (($x3334 (= cell_9_6 4)))
 (let (($x723 (= cell_9_6 3)))
 (let (($x7999 (= cell_9_6 2)))
 (let (($x3410 (= cell_9_6 1)))
 (or $x3410 $x7999 $x723 $x3334 $x436 $x6936 $x3588 $x2208 $x6776)))))))))))
(assert
 (let (($x229 (= cell_1_7 2)))
 (or (= cell_1_7 1) $x229 (= cell_1_7 3) (= cell_1_7 4) (= cell_1_7 5) (= cell_1_7 6) (= cell_1_7 7) (= cell_1_7 8) (= cell_1_7 9))))
(assert
 (let (($x2695 (= cell_2_7 9)))
 (let (($x726 (= cell_2_7 8)))
 (let (($x3867 (= cell_2_7 7)))
 (let (($x200 (= cell_2_7 6)))
 (let (($x3561 (= cell_2_7 5)))
 (let (($x3943 (= cell_2_7 4)))
 (let (($x3823 (= cell_2_7 3)))
 (let (($x2015 (= cell_2_7 2)))
 (let (($x385 (= cell_2_7 1)))
 (or $x385 $x2015 $x3823 $x3943 $x3561 $x200 $x3867 $x726 $x2695)))))))))))
(assert
 (let (($x1766 (= cell_3_7 9)))
 (let (($x2316 (= cell_3_7 8)))
 (let (($x622 (= cell_3_7 7)))
 (let (($x7319 (= cell_3_7 6)))
 (let (($x298 (= cell_3_7 5)))
 (let (($x2810 (= cell_3_7 4)))
 (let (($x1473 (= cell_3_7 3)))
 (let (($x3283 (= cell_3_7 2)))
 (let (($x3038 (= cell_3_7 1)))
 (or $x3038 $x3283 $x1473 $x2810 $x298 $x7319 $x622 $x2316 $x1766)))))))))))
(assert
 (let (($x3440 (= cell_4_7 9)))
 (let (($x4119 (= cell_4_7 8)))
 (let (($x1533 (= cell_4_7 7)))
 (let (($x1289 (= cell_4_7 6)))
 (let (($x3210 (= cell_4_7 5)))
 (let (($x3451 (= cell_4_7 4)))
 (let (($x2242 (= cell_4_7 3)))
 (let (($x3485 (= cell_4_7 2)))
 (let (($x3674 (= cell_4_7 1)))
 (or $x3674 $x3485 $x2242 $x3451 $x3210 $x1289 $x1533 $x4119 $x3440)))))))))))
(assert
 (let (($x369 (= cell_5_7 1)))
 (or $x369 (= cell_5_7 2) (= cell_5_7 3) (= cell_5_7 4) (= cell_5_7 5) (= cell_5_7 6) (= cell_5_7 7) (= cell_5_7 8) (= cell_5_7 9))))
(assert
 (let (($x2171 (= cell_6_7 2)))
 (let (($x1747 (= cell_6_7 1)))
 (or $x1747 $x2171 (= cell_6_7 3) (= cell_6_7 4) (= cell_6_7 5) (= cell_6_7 6) (= cell_6_7 7) (= cell_6_7 8) (= cell_6_7 9)))))
(assert
 (let (($x7835 (= cell_7_7 9)))
 (let (($x7040 (= cell_7_7 8)))
 (let (($x1209 (= cell_7_7 7)))
 (let (($x395 (= cell_7_7 6)))
 (let (($x3668 (= cell_7_7 5)))
 (let (($x3043 (= cell_7_7 4)))
 (let (($x3185 (= cell_7_7 3)))
 (let (($x325 (= cell_7_7 2)))
 (let (($x971 (= cell_7_7 1)))
 (or $x971 $x325 $x3185 $x3043 $x3668 $x395 $x1209 $x7040 $x7835)))))))))))
(assert
 (let (($x7 (= cell_8_7 9)))
 (let (($x4166 (= cell_8_7 8)))
 (let (($x606 (= cell_8_7 7)))
 (let (($x3340 (= cell_8_7 6)))
 (let (($x3377 (= cell_8_7 5)))
 (let (($x2630 (= cell_8_7 4)))
 (let (($x1312 (= cell_8_7 3)))
 (let (($x6759 (= cell_8_7 2)))
 (let (($x1162 (= cell_8_7 1)))
 (or $x1162 $x6759 $x1312 $x2630 $x3377 $x3340 $x606 $x4166 $x7)))))))))))
(assert
 (let (($x1047 (= cell_9_7 9)))
 (let (($x102 (= cell_9_7 8)))
 (let (($x291 (= cell_9_7 7)))
 (let (($x3557 (= cell_9_7 6)))
 (let (($x8006 (= cell_9_7 5)))
 (let (($x519 (= cell_9_7 4)))
 (let (($x7872 (= cell_9_7 3)))
 (let (($x939 (= cell_9_7 2)))
 (let (($x3624 (= cell_9_7 1)))
 (or $x3624 $x939 $x7872 $x519 $x8006 $x3557 $x291 $x102 $x1047)))))))))))
(assert
 (let (($x3649 (= cell_1_8 1)))
 (or $x3649 (= cell_1_8 2) (= cell_1_8 3) (= cell_1_8 4) (= cell_1_8 5) (= cell_1_8 6) (= cell_1_8 7) (= cell_1_8 8) (= cell_1_8 9))))
(assert
 (let (($x4150 (= cell_2_8 2)))
 (let (($x3257 (= cell_2_8 1)))
 (or $x3257 $x4150 (= cell_2_8 3) (= cell_2_8 4) (= cell_2_8 5) (= cell_2_8 6) (= cell_2_8 7) (= cell_2_8 8) (= cell_2_8 9)))))
(assert
 (let (($x3048 (= cell_3_8 2)))
 (let (($x907 (= cell_3_8 1)))
 (or $x907 $x3048 (= cell_3_8 3) (= cell_3_8 4) (= cell_3_8 5) (= cell_3_8 6) (= cell_3_8 7) (= cell_3_8 8) (= cell_3_8 9)))))
(assert
 (let (($x7670 (= cell_4_8 9)))
 (let (($x1280 (= cell_4_8 8)))
 (let (($x8015 (= cell_4_8 7)))
 (let (($x1255 (= cell_4_8 6)))
 (let (($x1845 (= cell_4_8 5)))
 (let (($x3817 (= cell_4_8 4)))
 (let (($x4194 (= cell_4_8 3)))
 (let (($x406 (= cell_4_8 2)))
 (let (($x1848 (= cell_4_8 1)))
 (or $x1848 $x406 $x4194 $x3817 $x1845 $x1255 $x8015 $x1280 $x7670)))))))))))
(assert
 (let (($x1539 (= cell_5_8 9)))
 (let (($x7345 (= cell_5_8 8)))
 (let (($x232 (= cell_5_8 7)))
 (let (($x1112 (= cell_5_8 6)))
 (let (($x7494 (= cell_5_8 5)))
 (let (($x1171 (= cell_5_8 4)))
 (let (($x2384 (= cell_5_8 3)))
 (let (($x2567 (= cell_5_8 2)))
 (let (($x524 (= cell_5_8 1)))
 (or $x524 $x2567 $x2384 $x1171 $x7494 $x1112 $x232 $x7345 $x1539)))))))))))
(assert
 (let (($x2732 (= cell_6_8 2)))
 (let (($x3329 (= cell_6_8 1)))
 (or $x3329 $x2732 (= cell_6_8 3) (= cell_6_8 4) (= cell_6_8 5) (= cell_6_8 6) (= cell_6_8 7) (= cell_6_8 8) (= cell_6_8 9)))))
(assert
 (let (($x2841 (= cell_7_8 9)))
 (let (($x784 (= cell_7_8 8)))
 (let (($x1042 (= cell_7_8 7)))
 (let (($x113 (= cell_7_8 6)))
 (let (($x3547 (= cell_7_8 5)))
 (let (($x356 (= cell_7_8 4)))
 (let (($x2538 (= cell_7_8 3)))
 (let (($x3225 (= cell_7_8 2)))
 (let (($x4174 (= cell_7_8 1)))
 (or $x4174 $x3225 $x2538 $x356 $x3547 $x113 $x1042 $x784 $x2841)))))))))))
(assert
 (let (($x3709 (= cell_8_8 9)))
 (let (($x89 (= cell_8_8 8)))
 (let (($x2786 (= cell_8_8 7)))
 (let (($x2720 (= cell_8_8 6)))
 (let (($x268 (= cell_8_8 5)))
 (let (($x6929 (= cell_8_8 4)))
 (let (($x991 (= cell_8_8 3)))
 (let (($x7070 (= cell_8_8 2)))
 (let (($x897 (= cell_8_8 1)))
 (or $x897 $x7070 $x991 $x6929 $x268 $x2720 $x2786 $x89 $x3709)))))))))))
(assert
 (let (($x1036 (= cell_9_8 9)))
 (let (($x3092 (= cell_9_8 8)))
 (let (($x225 (= cell_9_8 7)))
 (let (($x2162 (= cell_9_8 6)))
 (let (($x2342 (= cell_9_8 5)))
 (let (($x1292 (= cell_9_8 4)))
 (let (($x1830 (= cell_9_8 3)))
 (let (($x2271 (= cell_9_8 2)))
 (let (($x1584 (= cell_9_8 1)))
 (or $x1584 $x2271 $x1830 $x1292 $x2342 $x2162 $x225 $x3092 $x1036)))))))))))
(assert
 (let (($x311 (= cell_1_9 9)))
 (let (($x1145 (= cell_1_9 8)))
 (let (($x2861 (= cell_1_9 7)))
 (let (($x183 (= cell_1_9 6)))
 (let (($x770 (= cell_1_9 5)))
 (let (($x3289 (= cell_1_9 4)))
 (let (($x3087 (= cell_1_9 3)))
 (let (($x3919 (= cell_1_9 2)))
 (let (($x619 (= cell_1_9 1)))
 (or $x619 $x3919 $x3087 $x3289 $x770 $x183 $x2861 $x1145 $x311)))))))))))
(assert
 (let (($x2641 (= cell_2_9 9)))
 (let (($x2428 (= cell_2_9 8)))
 (let (($x505 (= cell_2_9 7)))
 (let (($x3981 (= cell_2_9 6)))
 (let (($x2013 (= cell_2_9 5)))
 (let (($x2632 (= cell_2_9 4)))
 (let (($x50 (= cell_2_9 3)))
 (let (($x1048 (= cell_2_9 2)))
 (let (($x1184 (= cell_2_9 1)))
 (or $x1184 $x1048 $x50 $x2632 $x2013 $x3981 $x505 $x2428 $x2641)))))))))))
(assert
 (let (($x1619 (= cell_3_9 9)))
 (let (($x3468 (= cell_3_9 8)))
 (let (($x3645 (= cell_3_9 7)))
 (let (($x1386 (= cell_3_9 6)))
 (let (($x377 (= cell_3_9 5)))
 (let (($x1768 (= cell_3_9 4)))
 (let (($x1966 (= cell_3_9 3)))
 (let (($x1065 (= cell_3_9 2)))
 (let (($x2941 (= cell_3_9 1)))
 (or $x2941 $x1065 $x1966 $x1768 $x377 $x1386 $x3645 $x3468 $x1619)))))))))))
(assert
 (let (($x677 (= cell_4_9 9)))
 (let (($x1589 (= cell_4_9 8)))
 (let (($x2340 (= cell_4_9 7)))
 (let (($x1164 (= cell_4_9 6)))
 (let (($x2157 (= cell_4_9 5)))
 (let (($x1793 (= cell_4_9 4)))
 (let (($x285 (= cell_4_9 3)))
 (let (($x2703 (= cell_4_9 2)))
 (let (($x2190 (= cell_4_9 1)))
 (or $x2190 $x2703 $x285 $x1793 $x2157 $x1164 $x2340 $x1589 $x677)))))))))))
(assert
 (let (($x837 (= cell_5_9 2)))
 (or (= cell_5_9 1) $x837 (= cell_5_9 3) (= cell_5_9 4) (= cell_5_9 5) (= cell_5_9 6) (= cell_5_9 7) (= cell_5_9 8) (= cell_5_9 9))))
(assert
 (let (($x2496 (= cell_6_9 9)))
 (let (($x7490 (= cell_6_9 8)))
 (let (($x118 (= cell_6_9 7)))
 (let (($x2753 (= cell_6_9 6)))
 (let (($x3876 (= cell_6_9 5)))
 (let (($x3664 (= cell_6_9 4)))
 (let (($x1774 (= cell_6_9 3)))
 (let (($x1591 (= cell_6_9 2)))
 (let (($x6784 (= cell_6_9 1)))
 (or $x6784 $x1591 $x1774 $x3664 $x3876 $x2753 $x118 $x7490 $x2496)))))))))))
(assert
 (let (($x2575 (= cell_7_9 9)))
 (let (($x112 (= cell_7_9 8)))
 (let (($x881 (= cell_7_9 7)))
 (let (($x2283 (= cell_7_9 6)))
 (let (($x2243 (= cell_7_9 5)))
 (let (($x1188 (= cell_7_9 4)))
 (let (($x4156 (= cell_7_9 3)))
 (let (($x290 (= cell_7_9 2)))
 (let (($x1414 (= cell_7_9 1)))
 (or $x1414 $x290 $x4156 $x1188 $x2243 $x2283 $x881 $x112 $x2575)))))))))))
(assert
 (let (($x816 (= cell_8_9 9)))
 (let (($x3858 (= cell_8_9 8)))
 (let (($x4131 (= cell_8_9 7)))
 (let (($x1601 (= cell_8_9 6)))
 (let (($x520 (= cell_8_9 5)))
 (let (($x187 (= cell_8_9 4)))
 (let (($x1821 (= cell_8_9 3)))
 (let (($x2528 (= cell_8_9 2)))
 (let (($x2398 (= cell_8_9 1)))
 (or $x2398 $x2528 $x1821 $x187 $x520 $x1601 $x4131 $x3858 $x816)))))))))))
(assert
 (let (($x2304 (= cell_9_9 1)))
 (or $x2304 (= cell_9_9 2) (= cell_9_9 3) (= cell_9_9 4) (= cell_9_9 5) (= cell_9_9 6) (= cell_9_9 7) (= cell_9_9 8) (= cell_9_9 9))))
(assert
 (and (distinct cell_1_1 cell_1_2 cell_1_3 cell_1_4 cell_1_5 cell_1_6 cell_1_7 cell_1_8 cell_1_9) true))
(assert
 (and (distinct cell_2_1 cell_2_2 cell_2_3 cell_2_4 cell_2_5 cell_2_6 cell_2_7 cell_2_8 cell_2_9) true))
(assert
 (and (distinct cell_3_1 cell_3_2 cell_3_3 cell_3_4 cell_3_5 cell_3_6 cell_3_7 cell_3_8 cell_3_9) true))
(assert
 (and (distinct cell_4_1 cell_4_2 cell_4_3 cell_4_4 cell_4_5 cell_4_6 cell_4_7 cell_4_8 cell_4_9) true))
(assert
 (and (distinct cell_5_1 cell_5_2 cell_5_3 cell_5_4 cell_5_5 cell_5_6 cell_5_7 cell_5_8 cell_5_9) true))
(assert
 (and (distinct cell_6_1 cell_6_2 cell_6_3 cell_6_4 cell_6_5 cell_6_6 cell_6_7 cell_6_8 cell_6_9) true))
(assert
 (and (distinct cell_7_1 cell_7_2 cell_7_3 cell_7_4 cell_7_5 cell_7_6 cell_7_7 cell_7_8 cell_7_9) true))
(assert
 (and (distinct cell_8_1 cell_8_2 cell_8_3 cell_8_4 cell_8_5 cell_8_6 cell_8_7 cell_8_8 cell_8_9) true))
(assert
 (and (distinct cell_9_1 cell_9_2 cell_9_3 cell_9_4 cell_9_5 cell_9_6 cell_9_7 cell_9_8 cell_9_9) true))
(assert
 (and (distinct cell_1_1 cell_2_1 cell_3_1 cell_4_1 cell_5_1 cell_6_1 cell_7_1 cell_8_1 cell_9_1) true))
(assert
 (and (distinct cell_1_2 cell_2_2 cell_3_2 cell_4_2 cell_5_2 cell_6_2 cell_7_2 cell_8_2 cell_9_2) true))
(assert
 (and (distinct cell_1_3 cell_2_3 cell_3_3 cell_4_3 cell_5_3 cell_6_3 cell_7_3 cell_8_3 cell_9_3) true))
(assert
 (and (distinct cell_1_4 cell_2_4 cell_3_4 cell_4_4 cell_5_4 cell_6_4 cell_7_4 cell_8_4 cell_9_4) true))
(assert
 (and (distinct cell_1_5 cell_2_5 cell_3_5 cell_4_5 cell_5_5 cell_6_5 cell_7_5 cell_8_5 cell_9_5) true))
(assert
 (and (distinct cell_1_6 cell_2_6 cell_3_6 cell_4_6 cell_5_6 cell_6_6 cell_7_6 cell_8_6 cell_9_6) true))
(assert
 (and (distinct cell_1_7 cell_2_7 cell_3_7 cell_4_7 cell_5_7 cell_6_7 cell_7_7 cell_8_7 cell_9_7) true))
(assert
 (and (distinct cell_1_8 cell_2_8 cell_3_8 cell_4_8 cell_5_8 cell_6_8 cell_7_8 cell_8_8 cell_9_8) true))
(assert
 (and (distinct cell_1_9 cell_2_9 cell_3_9 cell_4_9 cell_5_9 cell_6_9 cell_7_9 cell_8_9 cell_9_9) true))
(assert
 (and (distinct cell_1_1 cell_1_2 cell_1_3 cell_2_1 cell_2_2 cell_2_3 cell_3_1 cell_3_2 cell_3_3) true))
(assert
 (and (distinct cell_1_4 cell_1_5 cell_1_6 cell_2_4 cell_2_5 cell_2_6 cell_3_4 cell_3_5 cell_3_6) true))
(assert
 (and (distinct cell_1_7 cell_1_8 cell_1_9 cell_2_7 cell_2_8 cell_2_9 cell_3_7 cell_3_8 cell_3_9) true))
(assert
 (and (distinct cell_4_1 cell_4_2 cell_4_3 cell_5_1 cell_5_2 cell_5_3 cell_6_1 cell_6_2 cell_6_3) true))
(assert
 (and (distinct cell_4_4 cell_4_5 cell_4_6 cell_5_4 cell_5_5 cell_5_6 cell_6_4 cell_6_5 cell_6_6) true))
(assert
 (and (distinct cell_4_7 cell_4_8 cell_4_9 cell_5_7 cell_5_8 cell_5_9 cell_6_7 cell_6_8 cell_6_9) true))
(assert
 (and (distinct cell_7_1 cell_7_2 cell_7_3 cell_8_1 cell_8_2 cell_8_3 cell_9_1 cell_9_2 cell_9_3) true))
(assert
 (and (distinct cell_7_4 cell_7_5 cell_7_6 cell_8_4 cell_8_5 cell_8_6 cell_9_4 cell_9_5 cell_9_6) true))
(assert
 (and (distinct cell_7_7 cell_7_8 cell_7_9 cell_8_7 cell_8_8 cell_8_9 cell_9_7 cell_9_8 cell_9_9) true))
(assert
 (let (($x295 (and (distinct cell_5_9 cell_6_8 cell_7_7 cell_8_6) true)))
 (let (($x1195 (and (distinct cell_2_9 cell_3_8 cell_4_7 cell_5_6 cell_6_5 cell_7_4 cell_8_3 cell_9_2) true)))
 (let (($x66 (and (distinct cell_1_8 cell_2_7 cell_3_6 cell_4_5 cell_5_4 cell_6_3 cell_7_2 cell_8_1) true)))
 (let (($x2319 (and (distinct cell_1_5 cell_2_4 cell_3_3 cell_4_2) true)))
 (let (($x2114 (and (distinct cell_5_1 cell_6_2 cell_7_3 cell_8_4) true)))
 (let (($x70 (and (distinct cell_2_1 cell_3_2 cell_4_3 cell_5_4 cell_6_5 cell_7_6 cell_8_7 cell_9_8) true)))
 (let (($x2057 (and (distinct cell_1_2 cell_2_3 cell_3_4 cell_4_5 cell_5_6 cell_6_7 cell_7_8 cell_8_9) true)))
 (let (($x539 (and (distinct cell_1_5 cell_2_6 cell_3_7 cell_4_8) true)))
 (and $x539 $x2057 $x70 $x2114 $x2319 $x66 $x1195 $x295))))))))))
(assert
 (= cell_7_5 2))
(check-sat)
